1831971
82,14,81,57,15,60,49,87,85,45,10,97,33,89,64,70,53,11,18,25,58,23,42,83,38,13,80,6,65,3,47,72,94,50,77,78,93,16,39,28,24,21,91,8,0,46,69,73,44,79,67,96,41,66,35,34,88,2,63,1,4,84,68,9,90,61,36,86,75,37,98,71,54,43,12,92,62,31,32,56,59,48,17,55,76,95,29,30,19,20,40,5,74,52,7,51,22,27,26
